NAME:11_HardATSPLIB_11
TYPE: ATSP
DIMENSION: 11
EDGE_WEIGHT_TYPE: EXPLICIT
EDGE_WEIGHT_FORMAT: FULL_MATRIX
EDGE_WEIGHT_SECTION
0	22	7	12	32	0	7	12	12	12	17
33	0	15	15	15	7	10	10	5	0	0
43	25	0	15	40	18	35	35	30	25	25
28	25	0	0	35	3	35	35	30	25	25
18	15	0	15	0	18	0	5	5	5	10
50	26	7	22	32	0	32	37	32	26	26
23	15	5	16	30	18	0	5	5	5	10
23	10	5	11	25	13	0	0	0	0	5
28	10	10	16	25	13	5	5	0	0	5
33	10	15	21	25	13	10	10	5	0	5
33	5	15	20	20	7	10	10	5	0	0
